datasets/2-dimensional/CL_09_25_07.vbp
2
985 914 
25
137 188 30
143 224 72
301 195 4
278 269 88
139 110 54
353 388 64
285 367 90
303 314 26
272 297 94
160 182 28
334 236 72
359 225 49
203 315 54
232 175 19
313 169 28
113 166 61
298 131 84
135 132 23
191 334 67
232 105 53
125 111 54
136 220 16
333 396 9
281 109 54
249 123 77
