datasets/2-dimensional-benchmark/CL_09_25_07.txt
985 914 
0 30 137 188 
1 72 143 224 
2 4 301 195 
3 88 278 269 
4 54 139 110 
5 64 353 388 
6 90 285 367 
7 26 303 314 
8 94 272 297 
9 28 160 182 
10 72 334 236 
11 49 359 225 
12 54 203 315 
13 19 232 175 
14 28 313 169 
15 61 113 166 
16 84 298 131 
17 23 135 132 
18 67 191 334 
19 53 232 105 
20 54 125 111 
21 16 136 220 
22 9 333 396 
23 54 281 109 
24 77 249 123 
